NAME : problems/30-tsp/instance-28.tsp
COMMENT : No Comment
TYPE : TSP
DIMENSION: 30
EDGE_WEIGHT_TYPE : EUC_2D
NODE_COORD_SECTION
1 2532 8589 
2 7458 4377 
3 3003 3781 
4 6198 8350 
5 4665 6954 
6 4875 3527 
7 5993 1480 
8 6979 1579 
9 8590 3878 
10 1475 5727 
11 942 1871 
12 5252 5571 
13 2145 2653 
14 6750 7986 
15 6457 3830 
16 9328 9543 
17 4177 2598 
18 3946 4905 
19 9270 2938 
20 4255 4795 
21 608 5744 
22 8350 3315 
23 1310 1466 
24 9917 5705 
25 6868 8447 
26 2893 8720 
27 7291 8871 
28 1580 1565 
29 1915 201 
30 2446 9469 
EOF
